p cnf 23 17
-1 22 0 
-2 22 0 
-3 -4 22 0 
-5 22 0 
-6 22 0 
-7 -8 10 20 -9 22 0 
-4 22 0 
-10 8 20 -11 -6 -12 22 0 
-13 22 0 
-14 22 0 
-15 22 0 
-7 -13 -12 22 0 
-16 23 0 
-11 -17 -6 -8 10 20 22 0 
-3 -18 -19 -6 -4 22 0 
-20 8 10 22 0 
-21 22 0 
